NAME : Unnamed.433.tour
COMMENT : Length = 433
COMMENT : Found by LKH [Keld Helsgaun] Thu Oct 02 13:46:48 2014
TYPE : TOUR
DIMENSION : 27
TOUR_SECTION
1
10
23
27
9
3
11
24
14
12
25
20
17
16
22
18
21
15
6
8
2
4
5
7
13
19
26
-1
EOF
